benchmarks/NIA/2018.sorin/_source/sqrt/sqrt-more-rows-swap-columns.sol
(a+1)*(a+1) == su && t == 2*a+1
